************************************************************************
file with basedata            : mm32_.bas
initial value random generator: 133209496
************************************************************************
projects                      :  1
jobs (incl. supersource/sink ):  12
horizon                       :  86
RESOURCES
  - renewable                 :  2   R
  - nonrenewable              :  2   N
  - doubly constrained        :  0   D
************************************************************************
PROJECT INFORMATION:
pronr.  #jobs rel.date duedate tardcost  MPM-Time
    1     10      0       16        1       16
************************************************************************
PRECEDENCE RELATIONS:
jobnr.    #modes  #successors   successors
   0        1          3           1   2   3
   1        3          2           4   6
   2        3          3           5   6   8
   3        3          1           5
   4        3          3           7   8  10
   5        3          1           9
   6        3          1          10
   7        3          1           9
   8        3          1          11
   9        3          1          11
  10        3          1          11
  11        1          0        
************************************************************************
REQUESTS/DURATIONS:
jobnr. mode duration  R 1  R 2  R 3  R 4  E(W 1)  E(W 2)  E(W 3)
------------------------------------------------------------------------
  0      1     0       0    0    0    0     0       0       0
  1      1     6       8    0    9    9    48      54      54
  2      1     2       0    5   10    9    10      20      18
  3      1     2       8    0    3    9    16       6      18
  4      1     3       9    0    7    8    27      21      24
  5      1     1       8    0    5    6     8       5       6
  6      1     4       0    4    9    6    16      36      24
  7      1     1       0    4   10    4     4      10       4
  8      1     7      10    0    9    6    70      63      42
  9      1     2       8    0    6    2    16      12       4
 10      1     1       0    3   10    9     3      10       9
 11      1     0       0    0    0    0     0       0       0
************************************************************************
RESOURCEAVAILABILITIES:
  R 1  R 2  R 3
   45   78   68
************************************************************************
RESOURCE LIMITS:
jobnr.  l(R 1)  u(R 1)  l(R 2)  u(R 2)  l(R 3)  u(R 3)
------------------------------------------------------------------------
  0        0       0       0       0       0       0
  1        4       8       5       9       5       9
  2        3       5       5      10       5       9
  3        4       8       2       3       5       9
  4        5       9       4       7       4       8
  5        4       8       3       5       3       6
  6        2       4       5       9       3       6
  7        2       4       5      10       2       4
  8        5      10       5       9       3       6
  9        4       8       3       6       1       2
 10        2       3       5      10       5       9
 11        0       0       0       0       0       0
************************************************************************
SCENARIOS:
------------------------------------------------------------------------
RESOURCE k = 1
s = 1: (0, 38, 15, 13, 27, 9, 21, 5, 49, 13, 4, 0)
s = 2: (0, 74, 12, 12, 28, 9, 16, 7, 78, 14, 3, 0)
s = 3: (0, 37, 15, 20, 24, 13, 22, 4, 108, 16, 6, 0)
s = 4: (0, 54, 12, 12, 34, 7, 16, 6, 80, 18, 4, 0)
s = 5: (0, 41, 10, 17, 23, 6, 21, 3, 45, 24, 3, 0)
s = 6: (0, 34, 7, 19, 32, 13, 15, 4, 48, 22, 3, 0)
s = 7: (0, 55, 14, 16, 25, 7, 18, 5, 53, 23, 2, 0)
s = 8: (0, 35, 10, 10, 15, 6, 11, 6, 67, 14, 5, 0)
s = 9: (0, 71, 12, 16, 20, 9, 19, 3, 63, 12, 3, 0)
s = 10: (0, 87, 10, 14, 16, 7, 26, 5, 49, 23, 3, 0)
s = 11: (0, 45, 13, 21, 21, 8, 15, 3, 81, 18, 3, 0)
s = 12: (0, 42, 8, 14, 26, 5, 28, 4, 81, 17, 3, 0)
s = 13: (0, 62, 8, 18, 39, 13, 22, 5, 92, 19, 3, 0)
s = 14: (0, 72, 11, 10, 17, 10, 14, 4, 42, 12, 4, 0)
s = 15: (0, 47, 16, 16, 19, 10, 26, 5, 84, 18, 3, 0)
s = 16: (0, 45, 8, 13, 14, 7, 23, 3, 42, 16, 3, 0)
s = 17: (0, 58, 7, 20, 25, 10, 11, 6, 94, 23, 3, 0)
s = 18: (0, 31, 13, 16, 37, 11, 19, 3, 78, 23, 4, 0)
s = 19: (0, 40, 11, 12, 21, 15, 20, 6, 90, 13, 3, 0)
s = 20: (0, 72, 18, 22, 16, 11, 16, 5, 81, 23, 3, 0)
s = 21: (0, 32, 7, 20, 25, 8, 17, 4, 63, 16, 3, 0)
s = 22: (0, 27, 19, 23, 15, 5, 20, 7, 61, 16, 3, 0)
s = 23: (0, 59, 10, 15, 32, 8, 12, 7, 82, 16, 3, 0)
s = 24: (0, 48, 8, 17, 39, 6, 14, 6, 116, 21, 4, 0)
s = 25: (0, 28, 10, 12, 18, 10, 11, 4, 51, 17, 3, 0)
s = 26: (0, 35, 10, 23, 35, 8, 14, 6, 90, 13, 4, 0)
s = 27: (0, 46, 9, 21, 27, 9, 12, 6, 88, 11, 4, 0)
s = 28: (0, 34, 12, 10, 18, 7, 13, 6, 79, 16, 3, 0)
s = 29: (0, 65, 6, 15, 30, 9, 18, 7, 90, 22, 3, 0)
s = 30: (0, 41, 10, 28, 28, 8, 16, 4, 66, 13, 3, 0)
s = 31: (0, 33, 7, 21, 27, 10, 13, 5, 63, 18, 3, 0)
s = 32: (0, 52, 15, 12, 24, 6, 11, 6, 63, 21, 3, 0)
s = 33: (0, 37, 12, 14, 19, 7, 27, 4, 70, 25, 5, 0)
s = 34: (0, 60, 12, 21, 26, 8, 20, 6, 57, 14, 2, 0)
s = 35: (0, 64, 8, 16, 22, 9, 16, 5, 60, 15, 3, 0)
s = 36: (0, 37, 13, 14, 20, 8, 10, 5, 70, 10, 5, 0)
s = 37: (0, 63, 10, 15, 23, 8, 14, 6, 84, 14, 3, 0)
s = 38: (0, 41, 7, 16, 30, 6, 19, 4, 47, 10, 3, 0)
s = 39: (0, 32, 12, 14, 15, 6, 13, 4, 80, 13, 3, 0)
s = 40: (0, 31, 12, 20, 30, 10, 14, 5, 63, 16, 3, 0)
s = 41: (0, 45, 8, 27, 47, 7, 10, 3, 49, 22, 4, 0)
s = 42: (0, 67, 13, 14, 30, 5, 10, 4, 78, 16, 4, 0)
s = 43: (0, 56, 8, 19, 29, 11, 13, 4, 73, 14, 3, 0)
s = 44: (0, 42, 8, 11, 21, 7, 19, 6, 54, 24, 3, 0)
s = 45: (0, 60, 8, 19, 43, 6, 15, 5, 64, 21, 4, 0)
s = 46: (0, 60, 10, 19, 43, 7, 21, 3, 100, 25, 3, 0)
s = 47: (0, 41, 16, 21, 45, 9, 11, 4, 81, 15, 2, 0)
s = 48: (0, 89, 11, 13, 18, 5, 19, 3, 71, 19, 4, 0)
s = 49: (0, 52, 7, 15, 34, 7, 14, 4, 66, 11, 6, 0)
s = 50: (0, 35, 10, 14, 18, 11, 24, 5, 72, 15, 4, 0)
s = 51: (0, 73, 12, 11, 30, 6, 16, 4, 77, 12, 3, 0)
s = 52: (0, 30, 14, 18, 32, 6, 15, 6, 87, 24, 5, 0)
s = 53: (0, 55, 13, 20, 18, 5, 13, 3, 98, 10, 2, 0)
s = 54: (0, 37, 14, 16, 33, 13, 18, 3, 92, 12, 3, 0)
s = 55: (0, 34, 9, 17, 38, 10, 15, 3, 105, 11, 3, 0)
s = 56: (0, 51, 14, 11, 25, 11, 21, 5, 60, 20, 4, 0)
s = 57: (0, 49, 7, 20, 32, 9, 22, 4, 74, 14, 3, 0)
s = 58: (0, 59, 11, 19, 19, 12, 11, 6, 101, 23, 4, 0)
s = 59: (0, 51, 12, 17, 21, 8, 15, 5, 63, 12, 3, 0)
s = 60: (0, 34, 9, 15, 31, 13, 11, 3, 67, 14, 3, 0)
s = 61: (0, 64, 8, 10, 24, 6, 14, 5, 63, 22, 4, 0)
s = 62: (0, 60, 12, 11, 29, 6, 11, 4, 52, 17, 4, 0)
s = 63: (0, 46, 6, 12, 33, 10, 18, 6, 88, 18, 3, 0)
s = 64: (0, 43, 9, 19, 28, 6, 19, 5, 120, 18, 4, 0)
s = 65: (0, 34, 9, 17, 30, 8, 26, 4, 70, 9, 4, 0)
s = 66: (0, 30, 9, 22, 25, 10, 13, 4, 53, 9, 2, 0)
s = 67: (0, 26, 6, 21, 24, 9, 13, 4, 77, 11, 2, 0)
s = 68: (0, 64, 13, 12, 18, 13, 15, 6, 51, 15, 4, 0)
s = 69: (0, 66, 6, 16, 39, 10, 21, 3, 94, 17, 4, 0)
s = 70: (0, 69, 10, 24, 25, 7, 11, 6, 57, 18, 5, 0)
s = 71: (0, 58, 15, 17, 19, 11, 24, 4, 76, 10, 4, 0)
s = 72: (0, 49, 12, 18, 16, 11, 25, 5, 56, 13, 3, 0)
s = 73: (0, 44, 10, 9, 38, 9, 22, 3, 110, 11, 3, 0)
s = 74: (0, 51, 12, 21, 23, 7, 16, 4, 101, 11, 2, 0)
s = 75: (0, 47, 9, 13, 29, 8, 17, 7, 77, 19, 5, 0)
s = 76: (0, 39, 15, 18, 22, 9, 18, 5, 49, 21, 6, 0)
s = 77: (0, 45, 10, 17, 25, 9, 22, 3, 43, 10, 4, 0)
s = 78: (0, 31, 11, 21, 41, 9, 19, 5, 84, 17, 3, 0)
s = 79: (0, 35, 9, 12, 31, 9, 15, 5, 108, 15, 3, 0)
s = 80: (0, 36, 14, 16, 25, 11, 15, 3, 52, 17, 6, 0)
s = 81: (0, 82, 9, 12, 19, 5, 13, 3, 52, 11, 4, 0)
s = 82: (0, 60, 9, 18, 35, 7, 16, 4, 37, 17, 4, 0)
s = 83: (0, 57, 18, 28, 25, 8, 17, 7, 69, 19, 3, 0)
s = 84: (0, 55, 11, 17, 31, 6, 12, 5, 54, 18, 3, 0)
s = 85: (0, 65, 15, 14, 15, 10, 15, 5, 66, 10, 3, 0)
s = 86: (0, 40, 9, 14, 32, 6, 26, 4, 64, 17, 3, 0)
s = 87: (0, 40, 19, 15, 27, 9, 14, 4, 76, 16, 4, 0)
s = 88: (0, 73, 7, 16, 26, 11, 15, 4, 52, 21, 3, 0)
s = 89: (0, 31, 10, 13, 43, 7, 14, 6, 65, 24, 3, 0)
s = 90: (0, 49, 10, 25, 32, 7, 16, 6, 54, 12, 3, 0)
s = 91: (0, 26, 10, 15, 37, 10, 18, 4, 50, 16, 5, 0)
s = 92: (0, 29, 7, 19, 20, 8, 14, 3, 87, 18, 3, 0)
s = 93: (0, 51, 12, 25, 18, 12, 22, 3, 55, 23, 3, 0)
s = 94: (0, 61, 10, 17, 24, 6, 11, 3, 52, 23, 3, 0)
s = 95: (0, 53, 11, 31, 21, 13, 15, 4, 77, 12, 4, 0)
s = 96: (0, 40, 13, 16, 30, 9, 10, 4, 57, 14, 4, 0)
s = 97: (0, 34, 8, 20, 32, 8, 14, 3, 64, 13, 3, 0)
s = 98: (0, 33, 10, 19, 19, 6, 15, 4, 37, 24, 3, 0)
s = 99: (0, 49, 12, 17, 35, 8, 17, 4, 72, 14, 4, 0)
s = 100: (0, 55, 13, 10, 23, 14, 13, 5, 63, 27, 5, 0)
s = 101: (0, 40, 13, 15, 23, 10, 14, 5, 55, 12, 4, 0)
s = 102: (0, 31, 14, 15, 34, 7, 16, 5, 111, 14, 4, 0)
s = 103: (0, 62, 13, 14, 35, 7, 10, 3, 67, 25, 2, 0)
s = 104: (0, 56, 8, 14, 28, 8, 15, 4, 109, 19, 3, 0)
s = 105: (0, 39, 9, 13, 22, 7, 11, 3, 88, 16, 5, 0)
s = 106: (0, 28, 12, 16, 33, 7, 18, 5, 92, 22, 4, 0)
s = 107: (0, 26, 7, 11, 23, 7, 13, 4, 81, 13, 3, 0)
s = 108: (0, 48, 6, 14, 23, 10, 22, 7, 83, 29, 4, 0)
s = 109: (0, 65, 13, 19, 25, 8, 19, 4, 77, 15, 2, 0)
s = 110: (0, 64, 9, 19, 17, 8, 11, 4, 60, 11, 3, 0)
s = 111: (0, 57, 16, 16, 26, 7, 12, 4, 56, 16, 4, 0)
s = 112: (0, 44, 11, 11, 25, 6, 23, 6, 79, 11, 4, 0)
s = 113: (0, 70, 9, 16, 23, 7, 22, 4, 39, 21, 3, 0)
s = 114: (0, 49, 9, 13, 22, 11, 16, 5, 54, 12, 4, 0)
s = 115: (0, 35, 7, 11, 32, 9, 13, 4, 71, 16, 4, 0)
s = 116: (0, 37, 10, 14, 36, 5, 13, 5, 78, 14, 3, 0)
s = 117: (0, 33, 9, 22, 42, 8, 14, 4, 101, 16, 4, 0)
s = 118: (0, 82, 12, 18, 29, 9, 20, 6, 63, 14, 3, 0)
s = 119: (0, 58, 12, 20, 32, 10, 10, 3, 81, 18, 3, 0)
s = 120: (0, 38, 9, 18, 19, 10, 21, 3, 93, 22, 6, 0)
s = 121: (0, 33, 7, 22, 32, 8, 18, 5, 114, 15, 3, 0)
s = 122: (0, 45, 6, 13, 40, 9, 15, 4, 117, 15, 4, 0)
s = 123: (0, 57, 7, 22, 29, 7, 18, 6, 70, 23, 3, 0)
s = 124: (0, 59, 10, 13, 24, 10, 20, 4, 55, 19, 3, 0)
s = 125: (0, 65, 12, 10, 31, 5, 23, 5, 71, 22, 3, 0)
s = 126: (0, 45, 15, 13, 40, 10, 15, 5, 41, 17, 5, 0)
s = 127: (0, 60, 12, 19, 34, 9, 15, 6, 75, 19, 4, 0)
s = 128: (0, 48, 14, 13, 21, 8, 15, 6, 56, 19, 5, 0)
s = 129: (0, 34, 12, 12, 36, 10, 16, 4, 66, 22, 2, 0)
s = 130: (0, 36, 7, 11, 18, 7, 16, 3, 95, 21, 6, 0)
s = 131: (0, 45, 8, 21, 29, 7, 23, 4, 79, 16, 3, 0)
s = 132: (0, 68, 14, 17, 18, 8, 26, 5, 73, 21, 3, 0)
s = 133: (0, 45, 10, 10, 29, 10, 19, 4, 72, 16, 3, 0)
s = 134: (0, 50, 10, 19, 42, 10, 16, 4, 41, 17, 2, 0)
s = 135: (0, 74, 9, 22, 41, 8, 18, 4, 42, 25, 3, 0)
s = 136: (0, 46, 8, 13, 24, 11, 10, 4, 61, 15, 3, 0)
s = 137: (0, 36, 16, 19, 22, 10, 15, 5, 52, 17, 4, 0)
s = 138: (0, 64, 7, 15, 35, 9, 16, 4, 55, 23, 3, 0)
s = 139: (0, 54, 15, 16, 37, 8, 15, 3, 58, 14, 3, 0)
s = 140: (0, 31, 12, 28, 38, 7, 20, 4, 97, 14, 3, 0)
s = 141: (0, 33, 10, 19, 38, 8, 16, 4, 47, 15, 3, 0)
s = 142: (0, 60, 12, 18, 34, 10, 17, 5, 63, 14, 2, 0)
s = 143: (0, 91, 13, 18, 29, 7, 13, 6, 103, 14, 2, 0)
s = 144: (0, 31, 7, 25, 28, 7, 15, 3, 106, 12, 3, 0)
s = 145: (0, 31, 11, 17, 27, 6, 16, 4, 85, 11, 3, 0)
s = 146: (0, 46, 8, 14, 40, 6, 16, 3, 63, 11, 3, 0)
s = 147: (0, 61, 11, 11, 46, 14, 19, 4, 78, 17, 4, 0)
s = 148: (0, 53, 14, 23, 40, 11, 22, 3, 89, 12, 3, 0)
s = 149: (0, 34, 10, 17, 21, 9, 18, 6, 60, 18, 3, 0)
s = 150: (0, 60, 10, 14, 22, 9, 24, 4, 63, 15, 3, 0)
s = 151: (0, 57, 6, 13, 29, 8, 15, 4, 110, 10, 3, 0)
s = 152: (0, 53, 13, 15, 28, 8, 16, 4, 79, 16, 4, 0)
s = 153: (0, 36, 7, 12, 43, 8, 17, 3, 47, 17, 3, 0)
s = 154: (0, 47, 8, 16, 38, 6, 9, 3, 53, 17, 4, 0)
s = 155: (0, 59, 12, 11, 27, 8, 14, 3, 49, 20, 4, 0)
s = 156: (0, 53, 11, 14, 24, 6, 21, 4, 55, 19, 2, 0)
s = 157: (0, 42, 8, 19, 19, 8, 24, 7, 51, 16, 3, 0)
s = 158: (0, 37, 14, 16, 20, 9, 16, 5, 62, 10, 3, 0)
s = 159: (0, 95, 7, 18, 19, 10, 16, 3, 56, 18, 5, 0)
s = 160: (0, 44, 12, 20, 26, 7, 12, 5, 79, 12, 3, 0)
s = 161: (0, 70, 12, 15, 33, 8, 15, 5, 86, 13, 3, 0)
s = 162: (0, 64, 11, 22, 33, 9, 21, 4, 65, 25, 4, 0)
s = 163: (0, 57, 18, 14, 21, 8, 25, 5, 83, 15, 3, 0)
s = 164: (0, 48, 10, 21, 24, 9, 12, 3, 69, 13, 4, 0)
s = 165: (0, 67, 11, 10, 40, 6, 12, 4, 89, 19, 4, 0)
s = 166: (0, 27, 15, 15, 20, 9, 20, 3, 54, 12, 5, 0)
s = 167: (0, 56, 10, 14, 28, 6, 20, 6, 47, 10, 5, 0)
s = 168: (0, 59, 11, 24, 24, 7, 16, 4, 56, 20, 5, 0)
s = 169: (0, 37, 13, 19, 27, 7, 16, 3, 44, 19, 3, 0)
s = 170: (0, 43, 7, 13, 17, 7, 11, 5, 40, 16, 3, 0)
s = 171: (0, 50, 7, 10, 40, 10, 15, 3, 50, 16, 5, 0)
s = 172: (0, 51, 10, 20, 32, 5, 16, 4, 70, 26, 5, 0)
s = 173: (0, 67, 10, 21, 40, 11, 16, 3, 53, 12, 3, 0)
s = 174: (0, 39, 8, 21, 18, 7, 18, 3, 54, 10, 4, 0)
s = 175: (0, 57, 11, 12, 19, 8, 13, 3, 86, 12, 2, 0)
s = 176: (0, 48, 10, 16, 29, 7, 17, 5, 66, 15, 3, 0)
s = 177: (0, 41, 13, 14, 36, 9, 15, 6, 109, 15, 4, 0)
s = 178: (0, 47, 8, 13, 35, 12, 19, 5, 51, 25, 4, 0)
s = 179: (0, 25, 10, 17, 21, 9, 11, 6, 69, 9, 3, 0)
s = 180: (0, 57, 6, 14, 17, 6, 19, 4, 54, 22, 3, 0)
s = 181: (0, 72, 6, 10, 24, 9, 14, 3, 71, 12, 3, 0)
s = 182: (0, 31, 7, 11, 26, 7, 13, 4, 71, 17, 2, 0)
s = 183: (0, 41, 12, 16, 26, 5, 12, 5, 46, 13, 3, 0)
s = 184: (0, 39, 12, 13, 42, 8, 14, 3, 51, 22, 4, 0)
s = 185: (0, 64, 8, 15, 24, 11, 16, 3, 85, 17, 3, 0)
s = 186: (0, 52, 8, 12, 28, 8, 16, 3, 57, 23, 3, 0)
s = 187: (0, 46, 12, 14, 30, 5, 14, 3, 66, 13, 4, 0)
s = 188: (0, 35, 9, 13, 22, 11, 16, 4, 83, 19, 5, 0)
s = 189: (0, 37, 7, 11, 35, 12, 19, 3, 101, 18, 4, 0)
s = 190: (0, 45, 14, 18, 23, 5, 16, 6, 60, 14, 3, 0)
s = 191: (0, 38, 12, 12, 26, 11, 13, 6, 60, 13, 4, 0)
s = 192: (0, 66, 8, 9, 36, 7, 14, 5, 72, 19, 3, 0)
s = 193: (0, 34, 9, 17, 30, 10, 12, 4, 113, 12, 3, 0)
s = 194: (0, 33, 13, 18, 37, 6, 12, 4, 95, 13, 3, 0)
s = 195: (0, 49, 8, 26, 28, 9, 14, 6, 69, 16, 4, 0)
s = 196: (0, 32, 9, 12, 22, 11, 19, 3, 46, 13, 4, 0)
s = 197: (0, 51, 15, 16, 24, 5, 14, 3, 54, 19, 4, 0)
s = 198: (0, 49, 11, 13, 25, 5, 12, 6, 71, 13, 2, 0)
s = 199: (0, 29, 8, 24, 23, 9, 13, 5, 54, 12, 4, 0)
s = 200: (0, 54, 8, 19, 24, 6, 19, 7, 56, 13, 5, 0)
------------------------------------------------------------------------
RESOURCE k = 2
s = 1: (0, 43, 30, 5, 21, 6, 46, 12, 44, 10, 13, 0)
s = 2: (0, 83, 23, 5, 22, 6, 36, 18, 70, 11, 10, 0)
s = 3: (0, 42, 29, 8, 19, 9, 49, 8, 97, 12, 17, 0)
s = 4: (0, 60, 24, 5, 27, 4, 35, 15, 72, 14, 14, 0)
s = 5: (0, 46, 20, 7, 18, 4, 47, 7, 41, 18, 10, 0)
s = 6: (0, 38, 14, 7, 25, 8, 34, 9, 44, 17, 9, 0)
s = 7: (0, 62, 28, 6, 19, 5, 39, 13, 47, 18, 7, 0)
s = 8: (0, 39, 20, 4, 12, 4, 24, 14, 60, 11, 15, 0)
s = 9: (0, 80, 24, 6, 15, 6, 42, 7, 57, 9, 9, 0)
s = 10: (0, 98, 19, 6, 12, 5, 57, 11, 44, 17, 9, 0)
s = 11: (0, 50, 26, 8, 17, 5, 33, 6, 73, 14, 8, 0)
s = 12: (0, 47, 16, 6, 20, 3, 62, 9, 73, 13, 9, 0)
s = 13: (0, 69, 16, 7, 31, 8, 49, 12, 83, 14, 8, 0)
s = 14: (0, 81, 21, 4, 13, 6, 32, 9, 38, 9, 13, 0)
s = 15: (0, 53, 31, 6, 15, 6, 59, 12, 75, 14, 8, 0)
s = 16: (0, 51, 15, 5, 11, 4, 50, 7, 38, 12, 8, 0)
s = 17: (0, 66, 14, 8, 19, 6, 25, 15, 85, 18, 8, 0)
s = 18: (0, 35, 25, 6, 29, 7, 43, 8, 70, 17, 12, 0)
s = 19: (0, 45, 21, 5, 16, 9, 44, 13, 81, 10, 8, 0)
s = 20: (0, 81, 35, 9, 12, 7, 36, 11, 73, 17, 9, 0)
s = 21: (0, 36, 14, 8, 20, 5, 37, 10, 57, 12, 8, 0)
s = 22: (0, 31, 37, 9, 12, 3, 45, 17, 55, 12, 9, 0)
s = 23: (0, 66, 19, 6, 25, 5, 27, 17, 73, 12, 7, 0)
s = 24: (0, 53, 15, 7, 31, 4, 31, 13, 104, 16, 11, 0)
s = 25: (0, 32, 19, 5, 14, 6, 25, 9, 46, 13, 10, 0)
s = 26: (0, 39, 20, 9, 27, 5, 31, 14, 81, 10, 11, 0)
s = 27: (0, 52, 17, 8, 21, 6, 26, 14, 79, 8, 13, 0)
s = 28: (0, 38, 23, 4, 14, 4, 29, 13, 71, 12, 9, 0)
s = 29: (0, 73, 12, 6, 23, 6, 39, 16, 81, 16, 8, 0)
s = 30: (0, 46, 19, 11, 22, 5, 36, 9, 59, 10, 9, 0)
s = 31: (0, 37, 13, 8, 21, 6, 28, 13, 56, 13, 10, 0)
s = 32: (0, 58, 29, 5, 19, 4, 25, 13, 57, 16, 8, 0)
s = 33: (0, 42, 23, 6, 15, 5, 59, 9, 63, 19, 14, 0)
s = 34: (0, 68, 24, 8, 20, 5, 45, 13, 51, 11, 6, 0)
s = 35: (0, 71, 16, 6, 17, 6, 35, 13, 54, 11, 9, 0)
s = 36: (0, 41, 25, 6, 16, 5, 22, 13, 63, 8, 14, 0)
s = 37: (0, 71, 20, 6, 18, 5, 30, 13, 76, 11, 10, 0)
s = 38: (0, 46, 14, 6, 24, 4, 43, 9, 43, 7, 10, 0)
s = 39: (0, 36, 23, 6, 12, 4, 28, 10, 72, 10, 8, 0)
s = 40: (0, 35, 24, 8, 24, 6, 30, 11, 57, 12, 10, 0)
s = 41: (0, 50, 16, 11, 37, 4, 22, 7, 44, 16, 11, 0)
s = 42: (0, 76, 26, 6, 24, 4, 22, 10, 70, 12, 12, 0)
s = 43: (0, 62, 15, 7, 23, 7, 29, 9, 66, 11, 9, 0)
s = 44: (0, 47, 15, 4, 16, 4, 42, 15, 48, 18, 9, 0)
s = 45: (0, 68, 16, 7, 34, 4, 34, 12, 58, 16, 12, 0)
s = 46: (0, 67, 20, 7, 33, 5, 47, 6, 90, 19, 8, 0)
s = 47: (0, 46, 32, 8, 35, 6, 24, 9, 73, 11, 7, 0)
s = 48: (0, 100, 21, 5, 14, 4, 41, 8, 64, 15, 12, 0)
s = 49: (0, 58, 14, 6, 27, 4, 32, 9, 59, 8, 17, 0)
s = 50: (0, 39, 19, 6, 14, 7, 54, 12, 65, 11, 11, 0)
s = 51: (0, 83, 24, 4, 24, 4, 35, 8, 70, 9, 9, 0)
s = 52: (0, 33, 27, 7, 25, 4, 33, 15, 78, 18, 15, 0)
s = 53: (0, 62, 26, 8, 14, 4, 29, 8, 88, 8, 7, 0)
s = 54: (0, 41, 27, 6, 25, 8, 40, 6, 83, 9, 8, 0)
s = 55: (0, 38, 18, 7, 30, 6, 34, 7, 95, 8, 8, 0)
s = 56: (0, 58, 27, 4, 19, 7, 46, 13, 54, 15, 12, 0)
s = 57: (0, 55, 13, 8, 25, 6, 49, 9, 67, 11, 10, 0)
s = 58: (0, 66, 21, 7, 15, 7, 24, 15, 91, 18, 12, 0)
s = 59: (0, 57, 23, 7, 16, 5, 34, 12, 56, 9, 10, 0)
s = 60: (0, 38, 17, 6, 24, 8, 24, 7, 61, 10, 10, 0)
s = 61: (0, 71, 15, 4, 19, 4, 31, 13, 57, 17, 13, 0)
s = 62: (0, 67, 24, 5, 23, 4, 24, 9, 47, 13, 12, 0)
s = 63: (0, 52, 12, 5, 25, 6, 39, 15, 80, 14, 8, 0)
s = 64: (0, 48, 18, 7, 22, 4, 43, 11, 108, 14, 13, 0)
s = 65: (0, 38, 17, 7, 23, 5, 57, 9, 63, 7, 12, 0)
s = 66: (0, 34, 18, 9, 19, 7, 28, 8, 47, 7, 6, 0)
s = 67: (0, 29, 11, 8, 19, 6, 28, 10, 69, 8, 7, 0)
s = 68: (0, 72, 25, 5, 14, 9, 34, 13, 46, 12, 13, 0)
s = 69: (0, 74, 12, 6, 31, 6, 47, 7, 85, 13, 11, 0)
s = 70: (0, 77, 19, 9, 20, 4, 25, 14, 51, 14, 16, 0)
s = 71: (0, 65, 29, 7, 15, 7, 53, 10, 68, 8, 12, 0)
s = 72: (0, 55, 23, 7, 12, 7, 55, 11, 50, 10, 9, 0)
s = 73: (0, 49, 19, 4, 30, 6, 50, 7, 99, 9, 9, 0)
s = 74: (0, 58, 24, 8, 18, 4, 36, 9, 91, 8, 6, 0)
s = 75: (0, 53, 18, 5, 22, 5, 38, 17, 70, 15, 16, 0)
s = 76: (0, 43, 29, 7, 17, 6, 41, 13, 44, 16, 18, 0)
s = 77: (0, 50, 20, 7, 20, 6, 49, 7, 38, 8, 12, 0)
s = 78: (0, 35, 21, 8, 32, 6, 42, 11, 76, 13, 9, 0)
s = 79: (0, 39, 18, 5, 25, 6, 34, 11, 97, 11, 9, 0)
s = 80: (0, 40, 27, 6, 19, 7, 33, 7, 46, 13, 17, 0)
s = 81: (0, 93, 18, 5, 15, 4, 28, 7, 47, 8, 11, 0)
s = 82: (0, 68, 17, 7, 28, 5, 36, 9, 34, 13, 11, 0)
s = 83: (0, 64, 36, 11, 20, 5, 37, 17, 62, 14, 10, 0)
s = 84: (0, 62, 21, 7, 25, 4, 27, 12, 49, 13, 10, 0)
s = 85: (0, 73, 29, 5, 12, 6, 32, 11, 60, 8, 9, 0)
s = 86: (0, 45, 17, 5, 25, 4, 59, 10, 58, 13, 7, 0)
s = 87: (0, 45, 37, 6, 21, 6, 32, 8, 69, 12, 12, 0)
s = 88: (0, 82, 14, 6, 20, 7, 33, 8, 47, 16, 7, 0)
s = 89: (0, 35, 19, 5, 33, 5, 32, 15, 58, 18, 10, 0)
s = 90: (0, 55, 19, 10, 25, 4, 36, 15, 49, 9, 8, 0)
s = 91: (0, 29, 19, 6, 29, 6, 39, 9, 45, 12, 17, 0)
s = 92: (0, 33, 14, 8, 16, 5, 31, 6, 78, 14, 7, 0)
s = 93: (0, 57, 23, 10, 14, 8, 48, 7, 50, 17, 10, 0)
s = 94: (0, 69, 20, 7, 19, 4, 23, 7, 47, 18, 10, 0)
s = 95: (0, 59, 22, 12, 17, 8, 34, 10, 70, 9, 13, 0)
s = 96: (0, 45, 26, 6, 23, 6, 22, 10, 52, 11, 11, 0)
s = 97: (0, 39, 15, 8, 25, 5, 31, 8, 58, 10, 10, 0)
s = 98: (0, 37, 19, 8, 15, 4, 32, 10, 33, 18, 9, 0)
s = 99: (0, 55, 23, 7, 28, 5, 37, 9, 65, 11, 12, 0)
s = 100: (0, 62, 25, 4, 18, 9, 29, 11, 56, 20, 16, 0)
s = 101: (0, 45, 25, 6, 18, 7, 30, 12, 50, 9, 13, 0)
s = 102: (0, 35, 27, 6, 26, 4, 36, 12, 100, 10, 12, 0)
s = 103: (0, 69, 26, 5, 27, 5, 21, 6, 61, 19, 7, 0)
s = 104: (0, 63, 16, 6, 22, 5, 34, 10, 98, 14, 8, 0)
s = 105: (0, 43, 18, 5, 17, 5, 23, 7, 79, 12, 14, 0)
s = 106: (0, 32, 23, 6, 26, 4, 41, 12, 83, 16, 13, 0)
s = 107: (0, 29, 14, 4, 18, 4, 29, 10, 73, 10, 8, 0)
s = 108: (0, 54, 12, 6, 18, 7, 48, 17, 74, 22, 13, 0)
s = 109: (0, 73, 26, 7, 20, 5, 43, 9, 69, 11, 6, 0)
s = 110: (0, 72, 17, 7, 13, 5, 24, 10, 54, 8, 8, 0)
s = 111: (0, 64, 32, 6, 21, 4, 26, 10, 51, 12, 11, 0)
s = 112: (0, 49, 22, 4, 19, 4, 51, 14, 71, 8, 12, 0)
s = 113: (0, 79, 17, 6, 18, 5, 48, 9, 35, 16, 9, 0)
s = 114: (0, 55, 17, 5, 18, 7, 36, 13, 48, 9, 11, 0)
s = 115: (0, 39, 14, 4, 25, 6, 28, 9, 64, 12, 14, 0)
s = 116: (0, 41, 19, 6, 28, 4, 29, 11, 70, 10, 8, 0)
s = 117: (0, 37, 17, 8, 33, 5, 31, 10, 91, 12, 13, 0)
s = 118: (0, 93, 24, 7, 23, 6, 45, 15, 57, 11, 9, 0)
s = 119: (0, 66, 23, 8, 25, 6, 23, 6, 73, 14, 9, 0)
s = 120: (0, 42, 18, 7, 15, 6, 47, 8, 83, 16, 17, 0)
s = 121: (0, 37, 14, 9, 25, 5, 40, 11, 102, 11, 10, 0)
s = 122: (0, 51, 12, 5, 31, 6, 33, 8, 106, 11, 12, 0)
s = 123: (0, 65, 14, 8, 23, 4, 40, 13, 63, 18, 9, 0)
s = 124: (0, 66, 19, 5, 19, 6, 44, 10, 50, 14, 8, 0)
s = 125: (0, 73, 24, 4, 24, 4, 52, 13, 64, 17, 8, 0)
s = 126: (0, 50, 29, 5, 31, 7, 32, 13, 37, 13, 15, 0)
s = 127: (0, 68, 24, 7, 27, 6, 33, 14, 68, 14, 11, 0)
s = 128: (0, 54, 27, 5, 16, 5, 33, 15, 51, 15, 15, 0)
s = 129: (0, 38, 23, 5, 28, 6, 35, 10, 59, 17, 6, 0)
s = 130: (0, 41, 14, 4, 14, 4, 36, 8, 85, 16, 18, 0)
s = 131: (0, 51, 16, 8, 23, 5, 51, 10, 71, 12, 10, 0)
s = 132: (0, 76, 28, 7, 14, 5, 58, 11, 65, 16, 8, 0)
s = 133: (0, 50, 20, 4, 22, 6, 43, 8, 64, 12, 10, 0)
s = 134: (0, 56, 19, 7, 33, 6, 36, 9, 37, 13, 7, 0)
s = 135: (0, 84, 17, 9, 32, 5, 41, 9, 38, 19, 10, 0)
s = 136: (0, 52, 16, 5, 19, 7, 22, 9, 55, 11, 9, 0)
s = 137: (0, 40, 32, 8, 17, 6, 34, 11, 47, 13, 12, 0)
s = 138: (0, 71, 14, 6, 27, 6, 35, 9, 50, 17, 7, 0)
s = 139: (0, 61, 29, 6, 29, 5, 34, 8, 52, 11, 10, 0)
s = 140: (0, 35, 24, 11, 30, 5, 43, 9, 87, 10, 8, 0)
s = 141: (0, 37, 20, 7, 30, 5, 36, 8, 42, 12, 10, 0)
s = 142: (0, 67, 23, 7, 27, 6, 37, 11, 57, 10, 6, 0)
s = 143: (0, 102, 26, 7, 23, 5, 28, 13, 93, 10, 6, 0)
s = 144: (0, 35, 13, 10, 22, 4, 34, 7, 95, 9, 9, 0)
s = 145: (0, 35, 22, 7, 21, 4, 36, 10, 77, 9, 9, 0)
s = 146: (0, 51, 15, 6, 31, 4, 35, 7, 57, 9, 10, 0)
s = 147: (0, 69, 22, 5, 36, 9, 42, 10, 70, 13, 12, 0)
s = 148: (0, 60, 28, 9, 31, 7, 50, 8, 80, 9, 8, 0)
s = 149: (0, 38, 19, 7, 16, 6, 40, 14, 54, 14, 9, 0)
s = 150: (0, 68, 19, 6, 17, 6, 53, 9, 57, 11, 9, 0)
s = 151: (0, 64, 11, 5, 23, 5, 34, 10, 99, 7, 8, 0)
s = 152: (0, 60, 25, 6, 22, 5, 36, 9, 71, 12, 13, 0)
s = 153: (0, 41, 13, 5, 33, 5, 37, 8, 43, 13, 10, 0)
s = 154: (0, 53, 16, 6, 30, 4, 20, 7, 48, 13, 13, 0)
s = 155: (0, 67, 23, 5, 21, 5, 31, 8, 44, 15, 11, 0)
s = 156: (0, 60, 22, 6, 19, 4, 47, 9, 50, 15, 7, 0)
s = 157: (0, 48, 15, 8, 15, 5, 53, 16, 46, 12, 9, 0)
s = 158: (0, 41, 28, 6, 15, 6, 35, 12, 56, 8, 9, 0)
s = 159: (0, 107, 13, 7, 15, 6, 36, 8, 50, 14, 15, 0)
s = 160: (0, 49, 24, 8, 21, 5, 25, 11, 71, 9, 7, 0)
s = 161: (0, 79, 23, 6, 26, 5, 33, 11, 77, 10, 8, 0)
s = 162: (0, 72, 21, 9, 26, 6, 47, 8, 59, 19, 12, 0)
s = 163: (0, 64, 35, 6, 16, 5, 55, 12, 75, 11, 10, 0)
s = 164: (0, 53, 19, 8, 19, 6, 25, 7, 62, 10, 11, 0)
s = 165: (0, 76, 22, 4, 32, 4, 27, 9, 81, 14, 14, 0)
s = 166: (0, 31, 29, 6, 16, 6, 45, 6, 49, 9, 15, 0)
s = 167: (0, 63, 19, 6, 22, 4, 45, 14, 42, 8, 14, 0)
s = 168: (0, 67, 22, 9, 19, 5, 36, 9, 50, 15, 15, 0)
s = 169: (0, 42, 26, 7, 21, 4, 36, 7, 40, 15, 10, 0)
s = 170: (0, 49, 14, 5, 14, 5, 24, 11, 36, 12, 10, 0)
s = 171: (0, 57, 13, 4, 31, 6, 34, 7, 45, 12, 14, 0)
s = 172: (0, 58, 19, 8, 25, 4, 36, 9, 63, 20, 15, 0)
s = 173: (0, 76, 20, 8, 32, 7, 35, 8, 48, 9, 9, 0)
s = 174: (0, 43, 16, 8, 14, 4, 40, 7, 48, 8, 12, 0)
s = 175: (0, 64, 21, 5, 15, 5, 28, 6, 77, 9, 6, 0)
s = 176: (0, 54, 20, 6, 23, 5, 37, 13, 60, 12, 10, 0)
s = 177: (0, 46, 26, 5, 28, 6, 32, 13, 98, 11, 12, 0)
s = 178: (0, 52, 15, 5, 27, 8, 41, 11, 46, 19, 11, 0)
s = 179: (0, 29, 19, 7, 17, 6, 23, 15, 63, 7, 9, 0)
s = 180: (0, 64, 11, 5, 13, 4, 42, 8, 48, 17, 7, 0)
s = 181: (0, 81, 11, 4, 19, 6, 31, 7, 64, 9, 9, 0)
s = 182: (0, 34, 13, 4, 20, 4, 29, 9, 64, 13, 7, 0)
s = 183: (0, 46, 24, 6, 20, 3, 25, 11, 42, 10, 10, 0)
s = 184: (0, 44, 23, 5, 33, 5, 30, 6, 46, 17, 11, 0)
s = 185: (0, 71, 16, 6, 19, 7, 35, 8, 77, 13, 8, 0)
s = 186: (0, 59, 16, 5, 22, 5, 36, 6, 51, 17, 7, 0)
s = 187: (0, 52, 24, 6, 23, 3, 32, 6, 59, 10, 11, 0)
s = 188: (0, 40, 18, 5, 17, 7, 35, 10, 75, 14, 14, 0)
s = 189: (0, 42, 14, 4, 28, 8, 43, 8, 91, 14, 13, 0)
s = 190: (0, 50, 28, 7, 18, 4, 36, 15, 54, 11, 8, 0)
s = 191: (0, 42, 24, 5, 20, 7, 29, 13, 54, 10, 12, 0)
s = 192: (0, 74, 16, 4, 28, 4, 32, 13, 65, 14, 10, 0)
s = 193: (0, 38, 18, 7, 24, 7, 27, 10, 101, 9, 9, 0)
s = 194: (0, 37, 26, 7, 29, 4, 25, 9, 86, 10, 10, 0)
s = 195: (0, 55, 16, 10, 22, 6, 32, 15, 62, 12, 11, 0)
s = 196: (0, 36, 17, 5, 17, 7, 42, 8, 41, 10, 13, 0)
s = 197: (0, 58, 29, 6, 19, 4, 32, 8, 48, 15, 14, 0)
s = 198: (0, 55, 21, 5, 20, 3, 27, 14, 64, 10, 7, 0)
s = 199: (0, 33, 16, 9, 18, 6, 29, 12, 48, 9, 12, 0)
s = 200: (0, 60, 15, 8, 19, 4, 43, 16, 51, 10, 15, 0)
------------------------------------------------------------------------
RESOURCE k = 3
s = 1: (0, 43, 27, 15, 24, 7, 31, 5, 30, 4, 11, 0)
s = 2: (0, 83, 21, 14, 25, 7, 24, 7, 47, 4, 9, 0)
s = 3: (0, 42, 26, 22, 21, 10, 33, 4, 65, 4, 16, 0)
s = 4: (0, 60, 22, 13, 30, 5, 23, 6, 48, 5, 12, 0)
s = 5: (0, 46, 18, 19, 21, 5, 31, 3, 27, 6, 9, 0)
s = 6: (0, 38, 13, 21, 29, 10, 23, 4, 29, 6, 8, 0)
s = 7: (0, 62, 25, 18, 22, 5, 26, 5, 32, 6, 6, 0)
s = 8: (0, 39, 18, 11, 14, 4, 16, 6, 40, 4, 13, 0)
s = 9: (0, 80, 22, 18, 18, 7, 28, 3, 38, 3, 8, 0)
s = 10: (0, 98, 17, 16, 14, 6, 38, 5, 30, 6, 8, 0)
s = 11: (0, 50, 24, 23, 19, 6, 22, 3, 49, 5, 7, 0)
s = 12: (0, 47, 15, 16, 23, 4, 42, 4, 49, 5, 8, 0)
s = 13: (0, 69, 14, 20, 35, 10, 33, 5, 56, 5, 7, 0)
s = 14: (0, 81, 19, 11, 15, 7, 21, 4, 26, 3, 12, 0)
s = 15: (0, 53, 28, 18, 17, 7, 39, 5, 50, 5, 7, 0)
s = 16: (0, 51, 14, 14, 13, 5, 34, 3, 25, 4, 7, 0)
s = 17: (0, 66, 13, 22, 22, 7, 17, 6, 57, 6, 7, 0)
s = 18: (0, 35, 23, 18, 33, 8, 29, 3, 47, 6, 11, 0)
s = 19: (0, 45, 19, 14, 19, 11, 29, 6, 54, 4, 7, 0)
s = 20: (0, 81, 32, 25, 14, 8, 24, 5, 49, 6, 8, 0)
s = 21: (0, 36, 12, 22, 22, 6, 25, 4, 38, 4, 7, 0)
s = 22: (0, 31, 33, 26, 13, 4, 30, 7, 37, 4, 8, 0)
s = 23: (0, 66, 17, 17, 28, 6, 18, 7, 49, 4, 7, 0)
s = 24: (0, 53, 13, 19, 35, 4, 21, 6, 70, 6, 10, 0)
s = 25: (0, 32, 17, 14, 16, 8, 17, 4, 31, 5, 9, 0)
s = 26: (0, 39, 18, 26, 31, 6, 21, 6, 54, 4, 10, 0)
s = 27: (0, 52, 15, 23, 24, 7, 18, 6, 53, 3, 12, 0)
s = 28: (0, 38, 21, 11, 16, 5, 20, 6, 47, 4, 8, 0)
s = 29: (0, 73, 11, 17, 26, 7, 26, 7, 54, 6, 8, 0)
s = 30: (0, 46, 17, 31, 25, 6, 24, 4, 40, 4, 8, 0)
s = 31: (0, 37, 12, 24, 24, 8, 19, 5, 38, 5, 9, 0)
s = 32: (0, 58, 26, 14, 21, 4, 17, 6, 38, 6, 7, 0)
s = 33: (0, 42, 21, 16, 17, 6, 40, 4, 42, 7, 13, 0)
s = 34: (0, 68, 21, 24, 23, 6, 30, 6, 34, 4, 5, 0)
s = 35: (0, 71, 15, 18, 19, 7, 23, 5, 36, 4, 8, 0)
s = 36: (0, 41, 22, 16, 18, 6, 15, 5, 42, 3, 13, 0)
s = 37: (0, 71, 18, 17, 21, 6, 20, 6, 51, 4, 9, 0)
s = 38: (0, 46, 13, 18, 27, 4, 29, 4, 29, 3, 9, 0)
s = 39: (0, 36, 21, 16, 14, 5, 19, 4, 48, 4, 7, 0)
s = 40: (0, 35, 22, 23, 27, 7, 20, 5, 38, 4, 9, 0)
s = 41: (0, 50, 14, 31, 42, 5, 15, 3, 30, 6, 10, 0)
s = 42: (0, 76, 24, 16, 27, 4, 15, 4, 47, 4, 11, 0)
s = 43: (0, 62, 13, 21, 26, 9, 19, 4, 44, 4, 8, 0)
s = 44: (0, 47, 14, 12, 19, 5, 28, 6, 32, 6, 8, 0)
s = 45: (0, 68, 14, 21, 38, 5, 23, 5, 39, 6, 11, 0)
s = 46: (0, 67, 18, 21, 38, 6, 31, 3, 60, 7, 7, 0)
s = 47: (0, 46, 29, 23, 40, 7, 16, 4, 49, 4, 6, 0)
s = 48: (0, 100, 19, 14, 16, 4, 28, 3, 43, 5, 10, 0)
s = 49: (0, 58, 13, 17, 31, 5, 21, 4, 40, 3, 16, 0)
s = 50: (0, 39, 17, 16, 16, 9, 36, 5, 43, 4, 10, 0)
s = 51: (0, 83, 22, 12, 27, 5, 23, 4, 47, 3, 9, 0)
s = 52: (0, 33, 24, 20, 29, 5, 22, 6, 52, 6, 14, 0)
s = 53: (0, 62, 24, 22, 16, 4, 19, 3, 59, 3, 6, 0)
s = 54: (0, 41, 24, 18, 29, 10, 27, 3, 55, 3, 7, 0)
s = 55: (0, 38, 16, 19, 34, 8, 23, 3, 63, 3, 8, 0)
s = 56: (0, 58, 24, 12, 22, 8, 31, 5, 36, 5, 11, 0)
s = 57: (0, 55, 12, 22, 29, 7, 33, 4, 45, 4, 9, 0)
s = 58: (0, 66, 19, 21, 17, 9, 16, 6, 61, 6, 11, 0)
s = 59: (0, 57, 20, 19, 18, 6, 23, 5, 38, 3, 9, 0)
s = 60: (0, 38, 16, 16, 28, 10, 16, 3, 41, 4, 9, 0)
s = 61: (0, 71, 13, 11, 21, 5, 21, 5, 38, 6, 12, 0)
s = 62: (0, 67, 22, 13, 26, 5, 16, 4, 31, 5, 11, 0)
s = 63: (0, 52, 11, 13, 29, 8, 26, 6, 53, 5, 7, 0)
s = 64: (0, 48, 16, 21, 25, 4, 29, 5, 72, 5, 12, 0)
s = 65: (0, 38, 16, 20, 26, 6, 38, 4, 42, 3, 11, 0)
s = 66: (0, 34, 16, 25, 22, 8, 19, 4, 32, 3, 6, 0)
s = 67: (0, 29, 10, 24, 22, 7, 19, 4, 46, 3, 6, 0)
s = 68: (0, 72, 22, 13, 16, 10, 23, 6, 31, 4, 12, 0)
s = 69: (0, 74, 11, 18, 35, 7, 32, 3, 57, 5, 10, 0)
s = 70: (0, 77, 17, 27, 22, 5, 17, 6, 34, 5, 14, 0)
s = 71: (0, 65, 26, 20, 17, 8, 36, 4, 46, 3, 11, 0)
s = 72: (0, 55, 21, 20, 14, 8, 37, 5, 34, 4, 8, 0)
s = 73: (0, 49, 18, 10, 34, 7, 33, 3, 66, 3, 8, 0)
s = 74: (0, 58, 22, 23, 20, 5, 24, 4, 61, 3, 5, 0)
s = 75: (0, 53, 16, 14, 25, 6, 26, 7, 47, 5, 15, 0)
s = 76: (0, 43, 26, 20, 20, 7, 27, 5, 30, 6, 16, 0)
s = 77: (0, 50, 18, 19, 23, 7, 33, 3, 26, 3, 11, 0)
s = 78: (0, 35, 19, 23, 37, 7, 28, 5, 51, 5, 8, 0)
s = 79: (0, 39, 17, 14, 28, 7, 23, 5, 65, 4, 8, 0)
s = 80: (0, 40, 24, 18, 22, 9, 22, 3, 31, 5, 16, 0)
s = 81: (0, 93, 16, 14, 17, 4, 19, 3, 31, 3, 10, 0)
s = 82: (0, 68, 16, 20, 32, 6, 24, 4, 23, 5, 10, 0)
s = 83: (0, 64, 33, 31, 22, 6, 25, 7, 41, 5, 9, 0)
s = 84: (0, 62, 19, 19, 28, 4, 18, 5, 33, 5, 9, 0)
s = 85: (0, 73, 27, 15, 13, 7, 22, 5, 40, 3, 8, 0)
s = 86: (0, 45, 15, 15, 29, 5, 39, 4, 39, 5, 7, 0)
s = 87: (0, 45, 33, 17, 24, 7, 21, 4, 46, 4, 11, 0)
s = 88: (0, 82, 13, 18, 23, 8, 22, 4, 31, 6, 7, 0)
s = 89: (0, 35, 17, 14, 38, 5, 21, 6, 39, 6, 9, 0)
s = 90: (0, 55, 17, 28, 28, 5, 24, 6, 33, 3, 7, 0)
s = 91: (0, 29, 17, 17, 33, 8, 26, 4, 30, 4, 15, 0)
s = 92: (0, 33, 13, 22, 18, 6, 21, 3, 52, 5, 7, 0)
s = 93: (0, 57, 21, 29, 16, 9, 32, 3, 33, 6, 9, 0)
s = 94: (0, 69, 18, 19, 21, 5, 16, 3, 31, 6, 9, 0)
s = 95: (0, 59, 20, 35, 19, 10, 23, 4, 47, 3, 12, 0)
s = 96: (0, 45, 24, 18, 26, 7, 15, 4, 35, 4, 10, 0)
s = 97: (0, 39, 13, 22, 29, 6, 21, 3, 39, 4, 9, 0)
s = 98: (0, 37, 17, 22, 17, 5, 22, 4, 22, 6, 8, 0)
s = 99: (0, 55, 20, 19, 32, 6, 25, 4, 44, 4, 11, 0)
s = 100: (0, 62, 23, 11, 21, 10, 20, 5, 38, 7, 14, 0)
s = 101: (0, 45, 23, 17, 20, 8, 20, 5, 33, 3, 11, 0)
s = 102: (0, 35, 25, 17, 30, 5, 24, 5, 67, 4, 11, 0)
s = 103: (0, 69, 24, 15, 31, 5, 14, 3, 41, 7, 6, 0)
s = 104: (0, 63, 14, 16, 25, 6, 23, 4, 65, 5, 7, 0)
s = 105: (0, 43, 16, 15, 19, 6, 16, 3, 53, 4, 13, 0)
s = 106: (0, 32, 21, 18, 30, 5, 27, 5, 55, 6, 11, 0)
s = 107: (0, 29, 12, 12, 21, 5, 20, 4, 49, 4, 7, 0)
s = 108: (0, 54, 11, 16, 21, 8, 32, 7, 50, 8, 11, 0)
s = 109: (0, 73, 23, 21, 22, 6, 29, 4, 46, 4, 5, 0)
s = 110: (0, 72, 16, 21, 15, 6, 16, 4, 36, 3, 8, 0)
s = 111: (0, 64, 29, 18, 23, 5, 18, 4, 34, 4, 10, 0)
s = 112: (0, 49, 20, 12, 22, 4, 34, 6, 48, 3, 11, 0)
s = 113: (0, 79, 15, 18, 20, 6, 32, 4, 24, 6, 8, 0)
s = 114: (0, 55, 15, 14, 20, 9, 24, 5, 32, 3, 10, 0)
s = 115: (0, 39, 13, 12, 29, 7, 19, 4, 43, 4, 12, 0)
s = 116: (0, 41, 17, 16, 32, 4, 20, 5, 47, 4, 7, 0)
s = 117: (0, 37, 15, 24, 38, 6, 21, 4, 61, 4, 12, 0)
s = 118: (0, 93, 22, 20, 26, 7, 30, 6, 38, 4, 8, 0)
s = 119: (0, 66, 21, 23, 29, 8, 15, 3, 49, 5, 8, 0)
s = 120: (0, 42, 16, 20, 17, 7, 31, 3, 56, 6, 16, 0)
s = 121: (0, 37, 13, 25, 29, 6, 27, 5, 68, 4, 9, 0)
s = 122: (0, 51, 11, 15, 35, 7, 22, 4, 71, 4, 11, 0)
s = 123: (0, 65, 13, 24, 26, 5, 27, 6, 42, 6, 8, 0)
s = 124: (0, 66, 17, 15, 21, 7, 29, 4, 33, 5, 8, 0)
s = 125: (0, 73, 21, 11, 27, 4, 35, 5, 43, 6, 7, 0)
s = 126: (0, 50, 26, 15, 36, 8, 22, 5, 25, 5, 14, 0)
s = 127: (0, 68, 22, 21, 31, 7, 22, 6, 45, 5, 10, 0)
s = 128: (0, 54, 24, 15, 19, 6, 22, 6, 34, 5, 13, 0)
s = 129: (0, 38, 21, 13, 32, 7, 24, 4, 40, 6, 5, 0)
s = 130: (0, 41, 13, 12, 16, 5, 24, 3, 57, 6, 16, 0)
s = 131: (0, 51, 15, 24, 26, 5, 34, 4, 47, 4, 9, 0)
s = 132: (0, 76, 25, 19, 16, 6, 39, 5, 44, 6, 7, 0)
s = 133: (0, 50, 18, 11, 26, 8, 29, 4, 43, 4, 9, 0)
s = 134: (0, 56, 17, 21, 37, 7, 24, 4, 25, 5, 6, 0)
s = 135: (0, 84, 15, 25, 37, 6, 27, 4, 25, 7, 9, 0)
s = 136: (0, 52, 15, 14, 22, 8, 15, 4, 37, 4, 8, 0)
s = 137: (0, 40, 29, 22, 20, 8, 23, 5, 31, 5, 11, 0)
s = 138: (0, 71, 13, 17, 31, 7, 24, 4, 33, 6, 7, 0)
s = 139: (0, 61, 26, 18, 33, 6, 23, 3, 35, 4, 9, 0)
s = 140: (0, 35, 21, 32, 34, 6, 29, 4, 58, 4, 7, 0)
s = 141: (0, 37, 18, 21, 34, 6, 24, 4, 28, 4, 9, 0)
s = 142: (0, 67, 21, 20, 30, 7, 25, 5, 38, 4, 6, 0)
s = 143: (0, 102, 23, 20, 26, 6, 19, 6, 62, 4, 6, 0)
s = 144: (0, 35, 12, 28, 25, 5, 23, 3, 64, 3, 8, 0)
s = 145: (0, 35, 20, 19, 24, 5, 24, 4, 51, 3, 8, 0)
s = 146: (0, 51, 13, 16, 36, 5, 23, 3, 38, 3, 9, 0)
s = 147: (0, 69, 20, 13, 41, 11, 28, 4, 47, 5, 11, 0)
s = 148: (0, 60, 26, 26, 36, 9, 33, 3, 54, 3, 7, 0)
s = 149: (0, 38, 18, 19, 19, 7, 27, 6, 36, 5, 8, 0)
s = 150: (0, 68, 17, 16, 20, 7, 36, 4, 38, 4, 9, 0)
s = 151: (0, 64, 10, 14, 26, 6, 23, 4, 66, 3, 7, 0)
s = 152: (0, 60, 23, 17, 25, 6, 24, 4, 47, 4, 12, 0)
s = 153: (0, 41, 12, 14, 38, 6, 25, 3, 29, 5, 9, 0)
s = 154: (0, 53, 15, 18, 34, 5, 14, 3, 32, 5, 12, 0)
s = 155: (0, 67, 21, 13, 24, 6, 21, 3, 30, 5, 10, 0)
s = 156: (0, 60, 20, 16, 21, 4, 32, 4, 33, 5, 6, 0)
s = 157: (0, 48, 13, 22, 17, 6, 35, 7, 31, 4, 8, 0)
s = 158: (0, 41, 26, 17, 18, 7, 23, 5, 38, 3, 8, 0)
s = 159: (0, 107, 12, 20, 17, 7, 24, 3, 34, 5, 14, 0)
s = 160: (0, 49, 21, 22, 23, 5, 17, 5, 48, 3, 7, 0)
s = 161: (0, 79, 21, 17, 29, 6, 22, 5, 52, 4, 7, 0)
s = 162: (0, 72, 19, 25, 30, 7, 31, 4, 39, 7, 11, 0)
s = 163: (0, 64, 31, 16, 18, 6, 37, 5, 50, 4, 9, 0)
s = 164: (0, 53, 17, 23, 22, 7, 17, 3, 42, 4, 10, 0)
s = 165: (0, 76, 19, 11, 36, 5, 18, 4, 54, 5, 12, 0)
s = 166: (0, 31, 26, 17, 18, 7, 30, 3, 33, 3, 13, 0)
s = 167: (0, 63, 18, 16, 25, 5, 30, 6, 28, 3, 13, 0)
s = 168: (0, 67, 20, 27, 21, 6, 24, 4, 34, 5, 14, 0)
s = 169: (0, 42, 23, 21, 24, 5, 24, 3, 27, 5, 9, 0)
s = 170: (0, 49, 12, 14, 16, 5, 16, 5, 24, 4, 9, 0)
s = 171: (0, 57, 11, 12, 35, 7, 23, 3, 30, 4, 13, 0)
s = 172: (0, 58, 17, 22, 28, 4, 24, 4, 42, 7, 14, 0)
s = 173: (0, 76, 18, 23, 36, 8, 23, 3, 32, 3, 9, 0)
s = 174: (0, 43, 15, 23, 16, 5, 27, 3, 32, 3, 11, 0)
s = 175: (0, 64, 19, 14, 17, 6, 19, 3, 52, 3, 6, 0)
s = 176: (0, 54, 18, 18, 26, 6, 25, 5, 40, 4, 9, 0)
s = 177: (0, 46, 23, 15, 32, 7, 22, 6, 65, 4, 11, 0)
s = 178: (0, 52, 14, 15, 31, 9, 28, 5, 31, 7, 10, 0)
s = 179: (0, 29, 17, 19, 19, 7, 16, 6, 42, 3, 8, 0)
s = 180: (0, 64, 10, 15, 15, 4, 28, 4, 32, 6, 7, 0)
s = 181: (0, 81, 10, 12, 21, 7, 21, 3, 43, 3, 8, 0)
s = 182: (0, 34, 12, 12, 23, 5, 20, 4, 43, 5, 6, 0)
s = 183: (0, 46, 22, 18, 23, 4, 17, 5, 28, 4, 9, 0)
s = 184: (0, 44, 21, 14, 37, 6, 20, 3, 31, 6, 10, 0)
s = 185: (0, 71, 14, 17, 21, 9, 23, 3, 51, 5, 7, 0)
s = 186: (0, 59, 14, 14, 25, 6, 24, 3, 34, 6, 7, 0)
s = 187: (0, 52, 22, 16, 27, 4, 21, 3, 40, 4, 10, 0)
s = 188: (0, 40, 17, 15, 19, 8, 23, 4, 50, 5, 13, 0)
s = 189: (0, 42, 12, 12, 31, 9, 29, 3, 61, 5, 12, 0)
s = 190: (0, 50, 26, 21, 21, 4, 24, 6, 36, 4, 7, 0)
s = 191: (0, 42, 22, 14, 23, 9, 19, 6, 36, 4, 10, 0)
s = 192: (0, 74, 15, 10, 32, 5, 21, 5, 44, 5, 9, 0)
s = 193: (0, 38, 16, 19, 27, 8, 18, 4, 68, 3, 8, 0)
s = 194: (0, 37, 23, 20, 33, 5, 17, 4, 57, 4, 9, 0)
s = 195: (0, 55, 15, 29, 25, 7, 21, 6, 42, 4, 10, 0)
s = 196: (0, 36, 15, 13, 20, 9, 28, 3, 28, 4, 11, 0)
s = 197: (0, 58, 26, 18, 21, 4, 21, 3, 32, 5, 12, 0)
s = 198: (0, 55, 19, 15, 23, 4, 18, 6, 43, 4, 6, 0)
s = 199: (0, 33, 15, 27, 20, 7, 19, 5, 32, 3, 11, 0)
s = 200: (0, 60, 14, 22, 22, 4, 29, 7, 34, 4, 14, 0)
************************************************************************
ES/LS-VALUES:
jobnr.   ES(i)    LS(i)
------------------------------------------------------------------------
  0        0        0
  1        0       56
  2        0       70
  3        0       76
  4       11       68
  5        4       80
  6       11       77
  7       16       80
  8       16       74
  9       17       82
 10       18       84
 11       28       86
************************************************************************
BIG-M-VALUES:
M1 = 70, M2 = 309
************************************************************************
